
Gurobi 10.0.1 (linux64) logging started Sun Nov 26 15:45:11 2023

Set parameter LogFile to value "ArtificialInstance/ExperimentV2/S4T3K1/BaRo/gurobi91.txt"
Gurobi Optimizer version 10.0.1 build v10.0.1rc0 (linux64)

CPU model: AMD EPYC 7H12 64-Core Processor, instruction set [SSE2|AVX|AVX2]
Thread count: 128 physical cores, 128 logical processors, using up to 32 threads

Academic license 656792 - for non-commercial use only - registered to b.___@student.vu.nl
Optimize a model with 1374 rows, 2001 columns and 6884 nonzeros
Model fingerprint: 0x27e29569
Variable types: 1 continuous, 2000 integer (2000 binary)
Coefficient statistics:
  Matrix range     [1e+00, 4e+01]
  Objective range  [1e+00, 2e+01]
  Bounds range     [1e+00, 1e+00]
  RHS range        [1e+00, 1e+00]
Presolve time: 0.01s
Presolved: 1374 rows, 2001 columns, 6884 nonzeros
Variable types: 1 continuous, 2000 integer (2000 binary)
Found heuristic solution: objective 255.9131180

Root relaxation: objective 4.319559e+01, 1851 iterations, 0.06 seconds (0.05 work units)

    Nodes    |    Current Node    |     Objective Bounds      |     Work
 Expl Unexpl |  Obj  Depth IntInf | Incumbent    BestBd   Gap | It/Node Time

     0     0   43.19559    0  270  255.91312   43.19559  83.1%     -    0s
H    0     0                     168.8386555   43.19559  74.4%     -    0s
H    0     0                     168.4292480   43.19559  74.4%     -    0s
H    0     0                     118.2049845   43.19559  63.5%     -    0s
H    0     0                      82.6642797   43.19559  47.7%     -    0s
H    0     0                      82.5714219   47.50790  42.5%     -    0s
     0     0   47.50790    0  411   82.57142   47.50790  42.5%     -    0s
H    0     0                      79.8294975   51.51036  35.5%     -    0s
     0     0   51.51084    0  413   79.82950   51.51084  35.5%     -    0s
H    0     0                      66.3637732   54.17419  18.4%     -    0s
     0     0   54.17419    0  441   66.36377   54.17419  18.4%     -    0s
     0     0   54.17419    0  442   66.36377   54.17419  18.4%     -    0s
     0     0   54.61688    0  400   66.36377   54.61688  17.7%     -    0s
     0     0   54.65830    0  445   66.36377   54.65830  17.6%     -    0s
     0     0   54.67519    0  440   66.36377   54.67519  17.6%     -    0s
     0     0   54.67680    0  439   66.36377   54.67680  17.6%     -    0s
     0     0   55.58601    0  450   66.36377   55.58601  16.2%     -    0s
H    0     0                      61.9814471   55.58601  10.3%     -    0s
     0     0   55.62633    0  449   61.98145   55.62633  10.3%     -    0s
     0     0   55.63012    0  455   61.98145   55.63012  10.2%     -    0s
     0     0   56.19263    0  455   61.98145   56.19263  9.34%     -    0s
     0     0   56.26653    0  415   61.98145   56.26653  9.22%     -    0s
     0     0   56.27844    0  413   61.98145   56.27844  9.20%     -    0s
     0     0   56.52548    0  360   61.98145   56.52548  8.80%     -    0s
     0     0   56.58390    0  383   61.98145   56.58390  8.71%     -    0s
     0     0   56.58716    0  415   61.98145   56.58716  8.70%     -    0s
     0     0   56.66620    0  418   61.98145   56.66620  8.58%     -    0s
     0     0   56.69374    0  466   61.98145   56.69374  8.53%     -    0s
     0     0   56.69421    0  467   61.98145   56.69421  8.53%     -    0s
     0     0   56.90336    0  425   61.98145   56.90336  8.19%     -    0s
     0     0   56.90794    0  413   61.98145   56.90794  8.19%     -    0s
     0     0   56.98585    0  447   61.98145   56.98585  8.06%     -    1s
     0     0   56.98614    0  451   61.98145   56.98614  8.06%     -    1s
     0     0   57.09238    0  488   61.98145   57.09238  7.89%     -    1s
H    0     0                      61.5566017   57.09238  7.25%     -    1s
     0     0   57.09612    0  523   61.55660   57.09612  7.25%     -    1s
     0     0   57.19110    0  517   61.55660   57.19110  7.09%     -    1s
     0     0   57.21882    0  506   61.55660   57.21882  7.05%     -    1s
     0     0   57.23319    0  523   61.55660   57.23319  7.02%     -    1s
     0     0   57.23319    0  525   61.55660   57.23319  7.02%     -    1s
     0     0   57.23319    0  530   61.55660   57.23319  7.02%     -    1s
     0     0   57.23319    0  518   61.55660   57.23319  7.02%     -    1s
     0     0   57.23319    0  267   61.55660   57.23319  7.02%     -    1s
     0     0   57.23319    0  409   61.55660   57.23319  7.02%     -    1s
     0     0   57.23319    0  400   61.55660   57.23319  7.02%     -    1s
     0     0   57.23319    0  435   61.55660   57.23319  7.02%     -    1s
     0     0   57.23319    0  486   61.55660   57.23319  7.02%     -    1s
     0     0   57.24273    0  497   61.55660   57.24273  7.01%     -    1s
     0     0   57.24708    0  485   61.55660   57.24708  7.00%     -    1s
     0     0   57.24895    0  486   61.55660   57.24895  7.00%     -    1s
     0     0   57.26572    0  512   61.55660   57.26572  6.97%     -    1s
     0     0   57.26815    0  455   61.55660   57.26815  6.97%     -    1s
     0     0   57.33436    0  506   61.55660   57.33436  6.86%     -    2s
     0     0   57.33467    0  512   61.55660   57.33467  6.86%     -    2s
     0     0   57.33656    0  510   61.55660   57.33656  6.86%     -    2s
     0     0   57.33695    0  509   61.55660   57.33695  6.85%     -    2s
     0     0   57.39715    0  503   61.55660   57.39715  6.76%     -    2s
     0     0   57.39715    0  503   61.55660   57.39715  6.76%     -    2s
     0     0   57.40365    0  511   61.55660   57.40365  6.75%     -    2s
     0     0   57.41132    0  495   61.55660   57.41132  6.73%     -    2s
     0     0   57.41308    0  505   61.55660   57.41308  6.73%     -    2s
     0     0   57.41321    0  493   61.55660   57.41321  6.73%     -    2s
     0     0   57.41321    0  460   61.55660   57.41321  6.73%     -    2s
     0     2   57.41321    0  460   61.55660   57.41321  6.73%     -    2s

Cutting planes:
  Gomory: 9
  Zero half: 72
  RLT: 31

Explored 101 nodes (23713 simplex iterations) in 2.74 seconds (1.79 work units)
Thread count was 32 (of 128 available processors)

Solution count 10: 61.5566 61.9814 66.3638 ... 255.913

Optimal solution found (tolerance 1.00e-04)
Best objective 6.155660169535e+01, best bound 6.155660169535e+01, gap 0.0000%
